p cnf 32 28
-1 10 17 21 27 -30 0 
-1 10 17 21 28 -30 0 
-2 24 26 29 -30 0 
-3 25 30 0 
-4 31 0 
-5 30 0 
-6 30 0 
-7 9 12 20 23 32 -30 0 
-8 11 -2 24 26 29 -30 0 
-9 7 12 20 23 30 0 
-10 1 17 21 30 0 
-11 8 31 0 
-12 7 9 20 23 31 0 
-13 31 0 
-14 31 0 
-15 31 0 
-16 18 31 0 
-17 1 10 21 31 0 
-18 16 31 0 
-19 31 0 
-20 7 9 12 23 31 0 
-21 1 10 17 31 0 
-22 31 0 
-23 7 9 12 20 -24 2 26 28 -30 0 
-25 3 30 0 
-3 25 -1 10 17 21 28 -30 0 
-26 2 24 31 0 
-2 24 26 27 -30 0 
